O  H 
 1.0000000000000000
   100.0000000000000000    0.0000000000000000    0.0000000000000000
     0.0000000000000000  100.0000000000000000    0.0000000000000000
     0.0000000000000000    0.0000000000000000  100.0000000000000000
 O   H  
   1   2
Cartesian
 50.0000265000000041 49.9999995000000013 50.2976899999999958
 49.3370205000000013 49.6172995000000014 49.7023100000000042
 50.6629795000000058 50.3827004999999986 49.7023100000000042
