C
 1.0000000000000000
    12.3249999999999993    0.0000000000000000    0.0000000000000000
    -6.1624999999999996   10.6737599999999997    0.0000000000000000
     0.0000000000000000    0.0000000000000000    100.00
 C
  50
Cartesian
  0.0000000000000000  0.0000000000000000  0.0000000000000000
  0.0000000000000000  1.4231689999999999  0.0000000000000000
  2.4650120000000002  0.0000000000000000  0.0000000000000000
  2.4650120000000002  1.4231689999999999  0.0000000000000000
 -1.2325060000000001  2.1347529999999999  0.0000000000000000
 -1.2325060000000001  3.5579220000000000  0.0000000000000000
  1.2325060000000001  2.1347529999999999  0.0000000000000000
  1.2325060000000001  3.5579220000000000  0.0000000000000000
  4.9299720000000002  0.0000000000000000  0.0000000000000000
  4.9299720000000002  1.4231689999999999  0.0000000000000000
 -2.4650120000000002  4.2695059999999998  0.0000000000000000
 -2.4650120000000002  5.6926740000000002  0.0000000000000000
  2.4650120000000002  4.2695059999999998  0.0000000000000000
  2.4650120000000002  5.6926740000000002  0.0000000000000000
  7.3949840000000000  0.0000000000000000  0.0000000000000000
  7.3949840000000000  1.4231689999999999  0.0000000000000000
 -3.6975180000000001  6.4042589999999997  0.0000000000000000
 -3.6975180000000001  7.8274270000000001  0.0000000000000000
  3.6975180000000001  6.4042589999999997  0.0000000000000000
  3.6975180000000001  7.8274270000000001  0.0000000000000000
  0.0000000000000000  4.2695059999999998  0.0000000000000000
  0.0000000000000000  5.6926740000000002  0.0000000000000000
  3.6975180000000001  2.1347529999999999  0.0000000000000000
  3.6975180000000001  3.5579220000000000  0.0000000000000000
 -1.2325060000000001  6.4042589999999997  0.0000000000000000
 -1.2325060000000001  7.8274270000000001  0.0000000000000000
  6.1624780000000001  2.1347529999999999  0.0000000000000000
  6.1624780000000001  3.5579220000000000  0.0000000000000000
  1.2325060000000001  6.4042589999999997  0.0000000000000000
  1.2325060000000001  7.8274270000000001  0.0000000000000000
  4.9299720000000002  4.2695059999999998  0.0000000000000000
  4.9299720000000002  5.6926740000000002  0.0000000000000000
  9.8599960000000006  0.0000000000000000  0.0000000000000000
  9.8599960000000006  1.4231689999999999  0.0000000000000000
  8.6274899999999999  2.1347529999999999  0.0000000000000000
  8.6274899999999999  3.5579220000000000  0.0000000000000000
  7.3949840000000000  4.2695059999999998  0.0000000000000000
  7.3949840000000000  5.6926740000000002  0.0000000000000000
  6.1624780000000001  6.4042589999999997  0.0000000000000000
  6.1624780000000001  7.8274270000000001  0.0000000000000000
 -4.9299720000000002  8.5390119999999996  0.0000000000000000
 -4.9299720000000002  9.9621800000000000  0.0000000000000000
 -2.4650120000000002  8.5390119999999996  0.0000000000000000
 -2.4650120000000002  9.9621800000000000  0.0000000000000000
  0.0000000000000000  8.5390119999999996  0.0000000000000000
  0.0000000000000000  9.9621800000000000  0.0000000000000000
  2.4650120000000002  8.5390119999999996  0.0000000000000000
  2.4650120000000002  9.9621800000000000  0.0000000000000000
  4.9299720000000002  8.5390119999999996  0.0000000000000000
  4.9299720000000002  9.9621800000000000  0.0000000000000000
