C  O 
 1.0000000000000000
    100.0000000000000000    0.0000000000000000    0.0000000000000000
    0.00000000000000000  100.00000000000000    0.0000000000000000
     0.0000000000000000    0.0000000000000000  100.0000000000000000
 C   O  
  1   2
Cartesian
  3.0492982999999998  2.6815361800000002 44.4000000000003823
  4.0207012899999999  2.0206837400000000 44.4644218600003782
  2.0776670099999999  3.3426723500000000 44.3405451300003790
