   ALGO=Conjugate
   NCORE=4
   ISMEAR=0
   SIGMA=0.01
   
   PREC   = Accurate
   EDIFF  = 1E-6
   ENCUT=1000

 Ionic Relaxation
   ISIF   =   0
   GGA=RE
   IVDW=11   # d3 correction


LWAVE=.FALSE.
LCHARGE=.FALSE.
SYMPREC=1E-6
