C  O 
 1.0000000000000000
    12.3249999999999993    0.0000000000000000    0.0000000000000000
    -6.1624999999999970   10.6737631016432069    0.0000000000000000
     0.0000000000000000    0.0000000000000000   20.0000000000000036
 C   O  
  51   2
Cartesian
 11.9834795800000027  0.0034243299999711  0.0141677700000280
 -0.3415426399999746  1.4266498900000002  0.0110043200000120
  2.1235469999999728  0.0031535500000231  0.0124907000000000
  2.1232563400000548  1.4265262099999800  0.0064116999999440
 10.7509872100000425  2.1381896999999661  0.0121304699999320
 -1.5738226999999716  3.5612345699999879  0.0111037499999620
  0.8907830699999864  2.1385370199999838  0.0054791700000580
  0.8909927299999805  3.5614688500000273  0.0018065099999380
  4.5886389599999626  0.0034626000000065  0.0113478199999400
  4.5889364799999948  1.4262275700000011  0.0064584599999760
  9.5185376300000133  4.2728072999999700  0.0136902699999560
 -2.8063213200000021  5.6959126700000287  0.0143352599999960
  2.1229989400000515  4.2730220399999777  0.0000000000000000
  2.1233523700000516  5.6959360699999637  0.0058103599999980
  7.0534448299999815  0.0033315499999826  0.0139894999999520
  7.0535276399999676  1.4263536500000333  0.0136818699999700
  8.2860959800000007  6.4075203299999854  0.0160072299999560
 -4.0388493100000069  7.8307033899999965  0.0163628299999620
  3.3558553100000541  6.4075266199999756  0.0100723699999600
  3.3559859400000009  7.8307196199999671  0.0131976299999800
 -0.3414577599999650  4.2729019299999775  0.0072261200000420
 -0.3413789499999684  5.6959100999999750  0.0094627299999680
  3.3562423599999924  2.1379119800000144  0.0022249200000600
  3.3557325100000215  3.5615510299999973  0.0013940499999880
 -1.5739468400000360  6.4075828000000348  0.0131084999999580
 -1.5738521600000168  7.8306843400000377  0.0143782300000340
  5.8209310700000065  2.1378391600000333  0.0103324100000180
  5.8211401200000461  3.5609662199999748  0.0115593900000020
  0.8909224500000135  6.4075456100000139  0.0090711100000360
  0.8910625100000009  7.8306766999999740  0.0123547399999780
  4.5887097399999695  4.2729262199999871  0.0084979499999340
  4.5885232000000560  5.6960629999999721  0.0114902599999320
  9.5184497200000315  0.0033667899999655  0.0149040200000180
  9.5185503599999741  1.4264438699999937  0.0143826400000080
  8.2859347700000257  2.1380340799999997  0.0145258199999880
  8.2861268000000106  3.5611487199999776  0.0146366799999960
  7.0535622099999964  4.2726899400000127  0.0145744399999620
  7.0536221299999875  5.6958825100000050  0.0155275100000560
  5.8211228499999716  6.4075472299999952  0.0148927899999760
  5.8210166900000413  7.8307334999999725  0.0157878000000260
  7.0536285800000451  8.5422721899999789  0.0163058200000420
 -5.2714879200000606  9.9654872900000306  0.0149512699999840
 -2.8063795100000140  8.5423429500000285  0.0155843100000660
 -2.8062674900000015  9.9655289599999701  0.0136212600000360
 -0.3414880500000166  8.5423905799999762  0.0137849799999400
 -0.3413765700000377  9.9655030900000003  0.0135357599999960
  2.1234258600000016  8.5423199200000219  0.0133633699999800
  2.1235429600000306  9.9654413500000096  0.0146911100000580
  4.5884558100000001  8.5423533699999812  0.0150515400000020
  4.5885290400000294  9.9654984799999902  0.0151707599999900
  3.0772935840919597  2.6513753854156596  3.3069793296024987
  4.0864218539633583  2.0595440338338151  3.3589925989293170
  2.0679901317181497  3.2433822557084966  3.2604136860963986
