   ALGO=Conjugate
   KPAR=2
   NCORE=32
   ISMEAR=0
   SIGMA=0.01
 
  
   PREC   = Accurate
   EDIFF  = 1E-7
   ENCUT=1000

 Ionic Relaxation
   ISIF   =   0
 
#vdW

GGA = BO
PARAM1 = 0.1833333333
PARAM2 = 0.2200000000
LUSE_VDW = .TRUE.
AGGAC = 0.0000
LASPH = .TRUE.



SYMPREC=1E-7

