C  O  H 
 1.0000000000000000
  12.325     0.0000     0.0000
  -6.1625   10.67376    0.0000
   0.0000    0.0000    50.0000
  50   1   2
Cartesian
 0.000000 0.000000 0.000000
 0.000000 1.423169 0.000000
 2.465012 0.000000 0.000000
 2.465012 1.423169 0.000000
 -1.232506 2.134753 0.000000
 -1.232506 3.557922 0.000000
 1.232506 2.134753 0.000000
 1.232506 3.557922 0.000000
 4.929972 0.000000 0.000000
 4.929972 1.423169 0.000000
 -2.465012 4.269506 0.000000
 -2.465012 5.692674 0.000000
 2.465012 4.269506 0.000000
 2.465012 5.692674 0.000000
 7.394984 0.000000 0.000000
 7.394984 1.423169 0.000000
 -3.697518 6.404259 0.000000
 -3.697518 7.827427 0.000000
 3.697518 6.404259 0.000000
 3.697518 7.827427 0.000000
 0.000000 4.269506 0.000000
 0.000000 5.692674 0.000000
 3.697518 2.134753 0.000000
 3.697518 3.557922 0.000000
 -1.232506 6.404259 0.000000
 -1.232506 7.827427 0.000000
 6.162478 2.134753 0.000000
 6.162478 3.557922 0.000000
 1.232506 6.404259 0.000000
 1.232506 7.827427 0.000000
 4.929972 4.269506 0.000000
 4.929972 5.692674 0.000000
 9.859996 0.000000 0.000000
 9.859996 1.423169 0.000000
 8.627490 2.134753 0.000000
 8.627490 3.557922 0.000000
 7.394984 4.269506 0.000000
 7.394984 5.692674 0.000000
 6.162478 6.404259 0.000000
 6.162478 7.827427 0.000000
 -4.929972 8.539012 0.000000
 -4.929972 9.962180 0.000000
 -2.465012 8.539012 0.000000
 -2.465012 9.962180 0.000000
 0.000000 8.539012 0.000000
 0.000000 9.962180 0.000000
 2.465012 8.539012 0.000000
 2.465012 9.962180 0.000000
 4.929972 8.539012 0.000000
 4.929972 9.962180 0.000000
 1.232506  0.711584  3.370000
 0.569500  0.328884  2.774620
 1.895459  1.094285  2.774620
