   ALGO=Conjugate
   NPAR = 4
   ISMEAR=0
   SIGMA=0.01

   PREC   = Accurate
   EDIFF  = 1E-7
   ENCUT=1000

 Ionic Relaxation
   ISIF   =   0
 
#vdW

GGA = MK 
PARAM1 = 0.1234 
PARAM2 = 1.0000
LUSE_VDW = .TRUE.
AGGAC = 0.0000
LASPH = .TRUE.


SYMPREC=1E-7
