   ALGO=Conjugate
   KPAR=2
   NCORE=32
   ISMEAR=0
   SIGMA=0.01
   
   PREC   = Accurate
   EDIFF  = 1E-7
   ENCUT=1000

 Ionic Relaxation
   ISIF   =   0
 
#r2scan
METAGGA=R2SCAN
LASPH =.TRUE.

SYMPREC=1E-7
