 C  O 
 1.0000000000000000
    12.3249999999999993    0.0000000000000000    0.0000000000000000
    -6.1624999999999970   10.6737631016432069    0.0000000000000000
     0.0000000000000000    0.0000000000000000   20.0000000000000036
 C   O  
  51   2
Cartesian
 11.9834795799999991  0.0034243300000000  0.0141677700000000
 -0.3415426400000000  1.4266498900000000  0.0110043200000000
  2.1235469999999999  0.0031535500000000  0.0124907000000000
  2.1232563400000002  1.4265262100000000  0.0064117000000000
 10.7509872099999999  2.1381896999999999  0.0121304700000000
 -1.5738227000000000  3.5612345699999999  0.0111037500000000
  0.8907830700000000  2.1385370199999998  0.0054791700000000
  0.8909927300000000  3.5614688499999998  0.0018065100000000
  4.5886389599999999  0.0034626000000000  0.0113478200000000
  4.5889364800000001  1.4262275700000000  0.0064584600000000
  9.5185376300000009  4.2728073000000002  0.0136902700000000
 -2.8063213199999999  5.6959126700000002  0.0143352600000000
  2.1229989400000000  4.2730220399999999  0.0000000000000000
  2.1233523700000001  5.6959360700000001  0.0058103600000000
  7.0534448300000001  0.0033315500000000  0.0139895000000000
  7.0535276400000004  1.4263536500000000  0.0136818700000000
  8.2860959800000007  6.4075203299999997  0.0160072300000000
 -4.0388493099999998  7.8307033900000000  0.0163628300000000
  3.3558553099999999  6.4075266199999996  0.0100723700000000
  3.3559859400000001  7.8307196200000000  0.0131976300000000
 -0.3414577600000000  4.2729019299999997  0.0072261200000000
 -0.3413789500000000  5.6959100999999999  0.0094627300000000
  3.3562423600000000  2.1379119800000002  0.0022249200000000
  3.3557325100000002  3.5615510300000000  0.0013940500000000
 -1.5739468400000001  6.4075828000000001  0.0131085000000000
 -1.5738521599999999  7.8306843400000004  0.0143782300000000
  5.8209310700000003  2.1378391600000000  0.0103324100000000
  5.8211401199999999  3.5609662200000001  0.0115593900000000
  0.8909224500000000  6.4075456099999997  0.0090711100000000
  0.8910625100000000  7.8306766999999997  0.0123547400000000
  4.5887097399999996  4.2729262200000004  0.0084979500000000
  4.5885232000000000  5.6960629999999997  0.0114902600000000
  9.5184497199999996  0.0033667900000000  0.0149040200000000
  9.5185503600000008  1.4264438699999999  0.0143826400000000
  8.2859347700000008  2.1380340800000002  0.0145258200000000
  8.2861267999999999  3.5611487199999998  0.0146366800000000
  7.0535622099999999  4.2726899400000002  0.0145744400000000
  7.0536221299999999  5.6958825099999997  0.0155275100000000
  5.8211228500000001  6.4075472299999996  0.0148927900000000
  5.8210166900000004  7.8307335000000000  0.0157878000000000
  7.0536285799999998  8.5422721900000003  0.0163058200000000
 -5.2714879200000002  9.9654872900000004  0.0149512700000000
 -2.8063795100000002  8.5423429500000001  0.0155843100000000
 -2.8062674900000002  9.9655289600000003  0.0136212600000000
 -0.3414880500000000  8.5423905799999993  0.0137849800000000
 -0.3413765700000000  9.9655030900000003  0.0135357600000000
  2.1234258600000002  8.5423199200000006  0.0133633700000000
  2.1235429600000000  9.9654413500000008  0.0146911100000000
  4.5884558100000001  8.5423533700000007  0.0150515400000000
  4.5885290400000001  9.9654984800000008  0.0151707600000000
  3.0492982999999998  2.6815361800000002  2.8061551200000001
  4.0207012899999999  2.0206837400000000  2.8705769800000001
  2.0776670099999999  3.3426723500000000  2.7467002500000000
